(declare-rel fail ())
(declare-rel inv2 (Int Int Int Int Int))
(declare-var A Int)
(declare-var B Int)
(declare-var C Int)
(declare-var D Int)
(declare-var E Int)
(declare-var F Int)
(declare-var G Int)
(declare-var H Int)
(rule (=> (and (= F 0) (= C 10) (= H 0) (> A 0) (>= 5 A) (= B A)) (inv2 F C H B A)))
(rule (let ((a!1 (and (inv2 F C H B A)
                (= D (mod (+ F 1) 10))
                (= G (mod (- C 1) 10))
                (= E (ite (= F C) 0 (+ H 1))))))
  (=> a!1 (inv2 D G E B A))))
(rule (=> (and (inv2 F C H B A) (not (<= H B))) fail))
(query fail)

